
Gurobi 12.0.0 (win64) logging started Mon May  4 20:51:44 2026

Set parameter LogFile to value "C:\Users\Asus\Documents\GitHub\logistics-model2\internal-logistics-model2\results\MR_MV_RD\case3\result_MR_MV_RD_case3_P5_R3_eps9999_2026_05_04_20_51.log"
Gurobi Optimizer version 12.0.0 build v12.0.0rc1 (win64 - Windows 10.0 (19045.2))

CPU model: 12th Gen Intel(R) Core(TM) i7-12650H, instruction set [SSE2|AVX|AVX2]
Thread count: 10 physical cores, 16 logical processors, using up to 16 threads

Non-default parameters:
TimeLimit  600
MIPGap  0.01
Presolve  2

Optimize a model with 24417 rows, 7277 columns and 122579 nonzeros
Model fingerprint: 0x5f70d374
Variable types: 1157 continuous, 6120 integer (5895 binary)
Coefficient statistics:
  Matrix range     [1e+00, 5e+02]
  Objective range  [1e-03, 1e+00]
  Bounds range     [1e+00, 3e+01]
  RHS range        [1e+00, 1e+04]
Presolve removed 21990 rows and 6429 columns
Presolve time: 0.09s
Presolved: 2427 rows, 848 columns, 12866 nonzeros
Variable types: 281 continuous, 567 integer (504 binary)
Root relaxation presolve removed 39 rows and 0 columns
Root relaxation presolved: 2388 rows, 878 columns, 12690 nonzeros


Root relaxation: objective 0.000000e+00, 259 iterations, 0.02 seconds (0.03 work units)

    Nodes    |    Current Node    |     Objective Bounds      |     Work
 Expl Unexpl |  Obj  Depth IntInf | Incumbent    BestBd   Gap | It/Node Time

     0     0    0.00000    0   52          -    0.00000      -     -    0s
H    0     0                     150.1010000    0.00000   100%     -    0s
H    0     0                     112.1790000    0.00000   100%     -    0s
H    0     0                      99.1730000    0.00000   100%     -    0s
     0     0    0.00000    0   77   99.17300    0.00000   100%     -    0s
     0     0    0.00000    0   64   99.17300    0.00000   100%     -    0s
     0     0    0.00000    0   54   99.17300    0.00000   100%     -    0s
     0     0    0.00000    0   50   99.17300    0.00000   100%     -    0s
     0     0    0.00300    0   56   99.17300    0.00300   100%     -    0s
H    0     0                      95.1620000    0.00300   100%     -    0s
     0     0    0.00300    0   56   95.16200    0.00300   100%     -    0s
     0     0    0.00600    0   73   95.16200    0.00600   100%     -    0s
     0     0    0.00750    0   49   95.16200    0.00750   100%     -    0s
     0     0    0.01047    0   64   95.16200    0.01047   100%     -    0s
     0     0    0.01193    0   68   95.16200    0.01193   100%     -    0s
H    0     0                      91.1320000    0.01491   100%     -    0s
     0     0    0.01491    0   64   91.13200    0.01491   100%     -    0s
     0     0    0.01493    0   88   91.13200    0.01493   100%     -    0s
     0     0    0.01495    0   81   91.13200    0.01495   100%     -    0s
     0     0    0.01495    0   88   91.13200    0.01495   100%     -    0s
     0     0    0.01500    0   56   91.13200    0.01500   100%     -    0s
     0     0    0.01500    0   56   91.13200    0.01500   100%     -    0s
     0     0    0.01500    0   63   91.13200    0.01500   100%     -    0s
     0     0    0.01500    0   60   91.13200    0.01500   100%     -    0s
     0     0    0.01500    0   48   91.13200    0.01500   100%     -    0s
H    0     0                      91.1160000    0.01500   100%     -    0s
     0     0    0.01500    0   72   91.11600    0.01500   100%     -    0s
     0     0    0.01500    0   58   91.11600    0.01500   100%     -    0s
     0     0    0.01500    0   52   91.11600    0.01500   100%     -    0s
H    0     0                      90.1140000    0.01500   100%     -    1s
     0     2    0.01500    0   46   90.11400    0.01500   100%     -    1s
H  175   153                      86.1190000    0.01500   100%  76.6    1s
H  244   201                      85.0980000    0.01500   100%  68.9    1s
H  245   201                      83.0750000    0.01500   100%  68.8    1s
H  246   201                      77.0710000    0.01500   100%  68.8    1s
H  249   201                      77.0630000    0.01500   100%  68.8    1s
  4234  1212 infeasible   25        77.06300    0.01900   100%  45.8    5s

Cutting planes:
  Learned: 22
  Gomory: 3
  Cover: 95
  Implied bound: 176
  Projected implied bound: 11
  Clique: 10
  MIR: 131
  Flow cover: 185
  Inf proof: 3
  Zero half: 13
  RLT: 54
  Relax-and-lift: 115
  PSD: 2

Explored 9449 nodes (474091 simplex iterations) in 8.58 seconds (9.53 work units)
Thread count was 16 (of 16 available processors)

Solution count 10: 77.063 77.071 83.075 ... 99.173

Optimal solution found (tolerance 1.00e-02)
Best objective 7.706300000000e+01, best bound 7.706300000000e+01, gap 0.0000%
